
Gurobi 9.5.0 (linux64) logging started Sat Nov  4 11:39:07 2023

Set parameter LogFile to value "/lustre1/scratch/348/vsc34888/JointResearch/05.Models/06.Benchmarking/E.Representative_days_based_on_Line_Benefits_OptModel/RTS24_ByStages_nc50/openStarNet_RTS24_ByStages_nc50.log"
Set parameter Method to value 2
Set parameter MIPFocus to value 1
Set parameter Presolve to value 2
Set parameter RINS to value 100
Set parameter MIPGap to value 0.01
Set parameter Threads to value 36
Set parameter TimeLimit to value 604800
Set parameter IterationLimit to value 760000000
Gurobi Optimizer version 9.5.0 build v9.5.0rc5 (linux64)
Thread count: 36 physical cores, 36 logical processors, using up to 36 threads
Optimize a model with 22253 rows, 12645 columns and 60676 nonzeros
Model fingerprint: 0xc09893b6
Variable types: 12606 continuous, 39 integer (39 binary)
Coefficient statistics:
  Matrix range     [1e-03, 2e+03]
  Objective range  [1e+00, 1e+00]
  Bounds range     [4e-04, 3e+00]
  RHS range        [4e-04, 3e+00]
Presolve removed 10853 rows and 5352 columns
Presolve time: 0.09s
Presolved: 11400 rows, 7293 columns, 39604 nonzeros
Variable types: 7254 continuous, 39 integer (39 binary)
Found heuristic solution: objective 150.0917828
Root relaxation presolved: 11400 rows, 7293 columns, 39604 nonzeros

Root barrier log...

Ordering time: 0.00s

Barrier statistics:
 Dense cols : 39
 AA' NZ     : 8.435e+04
 Factor NZ  : 2.732e+05 (roughly 10 MB of memory)
 Factor Ops : 8.169e+06 (less than 1 second per iteration)
 Threads    : 36

                  Objective                Residual
Iter       Primal          Dual         Primal    Dual     Compl     Time
   0   5.87777000e+05 -1.29872686e+08  4.27e+00 6.03e+02  1.58e+04     0s
   1   6.02083146e+04 -3.39220897e+07  3.63e-01 6.09e-09  1.96e+03     0s
   2   1.64869301e+04 -3.03133062e+06  7.14e-03 2.82e-09  1.34e+02     0s
   3   1.02601745e+04 -1.91244101e+05  7.11e-13 1.65e-10  8.73e+00     0s
   4   2.02366768e+03 -2.47517114e+04  6.86e-13 1.67e-11  1.16e+00     0s
   5   1.05466018e+03 -7.38857396e+03  5.17e-13 4.66e-12  3.66e-01     0s
   6   7.65606624e+02 -3.98173143e+03  2.69e-13 2.43e-12  2.06e-01     0s
   7   4.29583249e+02 -1.34246157e+03  2.31e-13 1.82e-12  7.68e-02     0s
   8   2.58439689e+02 -2.67277621e+02  2.66e-13 1.82e-12  2.28e-02     0s
   9   1.81863384e+02 -5.07474578e+01  1.83e-13 1.82e-12  1.01e-02     0s
  10   1.32266734e+02  5.02766993e+01  8.23e-13 1.82e-12  3.55e-03     0s
  11   1.12257209e+02  8.21225930e+01  1.05e-12 1.82e-12  1.31e-03     0s
  12   1.03887954e+02  9.15403829e+01  1.97e-12 1.82e-12  5.35e-04     0s
  13   1.00600555e+02  9.39020143e+01  5.28e-12 1.82e-12  2.90e-04     0s
  14   9.88750754e+01  9.44233709e+01  3.38e-12 7.28e-12  1.93e-04     0s
  15   9.82570016e+01  9.50362702e+01  4.02e-12 3.64e-12  1.40e-04     0s
  16   9.70886774e+01  9.53886192e+01  4.35e-11 3.64e-12  7.36e-05     0s
  17   9.64498525e+01  9.55996826e+01  7.07e-11 1.82e-12  3.68e-05     0s
  18   9.60280860e+01  9.57204575e+01  6.01e-11 1.82e-12  1.33e-05     0s
  19   9.58755977e+01  9.57611920e+01  3.34e-10 3.64e-12  4.96e-06     0s
  20   9.58309334e+01  9.58068854e+01  1.45e-10 1.82e-12  1.04e-06     0s
  21   9.58180983e+01  9.58149523e+01  5.40e-11 1.82e-12  1.36e-07     0s
  22   9.58160706e+01  9.58158252e+01  1.27e-09 3.64e-12  1.06e-08     0s
  23   9.58158868e+01  9.58158719e+01  3.52e-09 3.64e-12  6.46e-10     0s
  24   9.58158727e+01  9.58158727e+01  3.16e-10 3.64e-12  2.36e-13     0s

Barrier solved model in 24 iterations and 0.49 seconds (0.36 work units)
Optimal objective 9.58158727e+01


Root relaxation: objective 9.581587e+01, 894 iterations, 0.35 seconds (0.19 work units)

    Nodes    |    Current Node    |     Objective Bounds      |     Work
 Expl Unexpl |  Obj  Depth IntInf | Incumbent    BestBd   Gap | It/Node Time

     0     0   95.81587    0   10  150.09178   95.81587  36.2%     -    0s
H    0     0                     108.1075270   95.81587  11.4%     -    0s
     0     0   99.40071    0   11  108.10753   99.40071  8.05%     -    0s
     0     0   99.89903    0   10  108.10753   99.89903  7.59%     -    1s
     0     0   99.96360    0   12  108.10753   99.96360  7.53%     -    1s
     0     0   99.96360    0   12  108.10753   99.96360  7.53%     -    1s
     0     0  100.23474    0   13  108.10753  100.23474  7.28%     -    1s
     0     0  100.23666    0   11  108.10753  100.23666  7.28%     -    1s
     0     0  100.23666    0   11  108.10753  100.23666  7.28%     -    1s
     0     0  100.24996    0   11  108.10753  100.24996  7.27%     -    1s
     0     0  100.24996    0   11  108.10753  100.24996  7.27%     -    1s
     0     0  100.25087    0   11  108.10753  100.25087  7.27%     -    1s
     0     0  100.25087    0   10  108.10753  100.25087  7.27%     -    2s
H    0     0                     107.2930358  100.25087  6.56%     -    3s
     0     2  100.25087    0   10  107.29304  100.25087  6.56%     -    3s
   118    40     cutoff    9       107.29304  103.30474  3.72%   142    7s
   154    42  104.31326   10    5  107.29304  103.36853  3.66%   132   10s

Cutting planes:
  Gomory: 6
  MIR: 278
  Relax-and-lift: 1

Explored 287 nodes (34447 simplex iterations) in 10.20 seconds (9.73 work units)
Thread count was 36 (of 36 available processors)

Solution count 3: 107.293 108.108 150.092 

Optimal solution found (tolerance 1.00e-02)
Best objective 1.072930358365e+02, best bound 1.064560749552e+02, gap 0.7801%

Gurobi 9.5.0 (linux64) logging started Sat Nov  4 11:39:19 2023

Set parameter LogFile to value "/lustre1/scratch/348/vsc34888/JointResearch/05.Models/06.Benchmarking/E.Representative_days_based_on_Line_Benefits_OptModel/RTS24_ByStages_nc50/openStarNet_RTS24_ByStages_nc50.log"
Set parameter Method to value 2
Set parameter MIPFocus to value 1
Set parameter Presolve to value 2
Set parameter RINS to value 100
Set parameter MIPGap to value 0.01
Set parameter Threads to value 36
Set parameter TimeLimit to value 604800
Set parameter IterationLimit to value 760000000
No parameters matching 'relax_integrality' found
Gurobi Optimizer version 9.5.0 build v9.5.0rc5 (linux64)
Thread count: 36 physical cores, 36 logical processors, using up to 36 threads
Optimize a model with 22253 rows, 12606 columns and 52837 nonzeros
Model fingerprint: 0x2e708e2d
Coefficient statistics:
  Matrix range     [1e-03, 2e+03]
  Objective range  [1e+00, 1e+00]
  Bounds range     [4e-04, 3e+00]
  RHS range        [4e-04, 3e+01]
Presolve removed 17605 rows and 5856 columns
Presolve time: 0.02s
Presolved: 4648 rows, 6850 columns, 17046 nonzeros

Ordering time: 0.00s

Barrier statistics:
 AA' NZ     : 1.196e+04
 Factor NZ  : 5.069e+04 (roughly 4 MB of memory)
 Factor Ops : 7.664e+05 (less than 1 second per iteration)
 Threads    : 1

                  Objective                Residual
Iter       Primal          Dual         Primal    Dual     Compl     Time
   0   6.91399156e+05 -3.91333856e+08  5.77e+00 1.01e+03  6.60e+04     0s
   1   7.25435739e+04 -5.94328924e+07  4.31e-01 4.74e-11  6.48e+03     0s
   2   3.79900473e+04 -4.86927427e+06  1.07e-01 5.86e-11  5.02e+02     0s
   3   2.14197449e+04 -5.20949251e+05  3.41e-03 5.82e-11  4.66e+01     0s
   4   7.41064858e+03 -7.50412104e+04  5.66e-05 1.62e-11  7.03e+00     0s
   5   2.98536065e+03 -1.38358030e+04  1.50e-05 1.46e-11  1.43e+00     0s
   6   9.32307974e+02 -2.96692617e+03  2.55e-06 1.46e-11  3.32e-01     0s
   7   5.07073074e+02 -1.11244995e+03  1.01e-06 1.46e-11  1.38e-01     0s
   8   2.71968510e+02 -2.53093822e+02  3.26e-07 7.28e-12  4.47e-02     0s
   9   1.41545127e+02  9.68857038e+00  4.22e-08 7.28e-12  1.12e-02     0s
  10   1.18660456e+02  6.48239777e+01  1.10e-08 1.46e-11  4.59e-03     0s
  11   1.13312243e+02  9.09154557e+01  5.37e-09 7.28e-12  1.91e-03     0s
  12   1.09941982e+02  1.00202026e+02  2.18e-09 7.28e-12  8.30e-04     0s
  13   1.07983759e+02  1.05600865e+02  4.68e-10 1.82e-12  2.03e-04     0s
  14   1.07485135e+02  1.07055244e+02  1.16e-10 3.64e-12  3.66e-05     0s
  15   1.07349903e+02  1.07263942e+02  3.38e-11 3.64e-12  7.33e-06     0s
  16   1.07309197e+02  1.07290224e+02  9.54e-12 3.64e-12  1.62e-06     0s
  17   1.07293136e+02  1.07292525e+02  4.06e-11 7.28e-12  5.20e-08     0s
  18   1.07293036e+02  1.07293036e+02  1.08e-12 7.28e-12  1.09e-13     0s

Barrier solved model in 18 iterations and 0.10 seconds (0.07 work units)
Optimal objective 1.07293036e+02

Crossover log...

     514 DPushes remaining with DInf 0.0000000e+00                 0s
       0 DPushes remaining with DInf 0.0000000e+00                 0s

     383 PPushes remaining with PInf 0.0000000e+00                 0s
       0 PPushes remaining with PInf 0.0000000e+00                 0s

  Push phase complete: Pinf 0.0000000e+00, Dinf 5.5701613e-12      0s

Iteration    Objective       Primal Inf.    Dual Inf.      Time
     392    1.0729304e+02   0.000000e+00   0.000000e+00      0s

Use crossover to convert LP symmetric solution to basic solution...
Crossover log...

       0 DPushes remaining with DInf 0.0000000e+00                 0s

     176 PPushes remaining with PInf 0.0000000e+00                 0s
       0 PPushes remaining with PInf 0.0000000e+00                 0s

  Push phase complete: Pinf 0.0000000e+00, Dinf 3.5113232e-12      0s

Iteration    Objective       Primal Inf.    Dual Inf.      Time
     574    1.0729304e+02   0.000000e+00   0.000000e+00      0s

Solved in 574 iterations and 0.14 seconds (0.10 work units)
Optimal objective  1.072930358e+02

Gurobi 9.5.0 (linux64) logging started Sat Nov  4 12:07:57 2023

Set parameter LogFile to value "/lustre1/scratch/348/vsc34888/JointResearch/05.Models/06.Benchmarking/E.Representative_days_based_on_Line_Benefits_OptModel/RTS24_ByStages_nc50/openStarNet_RTS24_ByStages_nc50.log"
Set parameter Method to value 2
Set parameter MIPFocus to value 1
Set parameter Presolve to value 2
Set parameter RINS to value 100
Set parameter MIPGap to value 0.01
Set parameter Threads to value 36
Set parameter TimeLimit to value 604800
Set parameter IterationLimit to value 760000000
Gurobi Optimizer version 9.5.0 build v9.5.0rc5 (linux64)
Thread count: 36 physical cores, 36 logical processors, using up to 36 threads
Optimize a model with 22253 rows, 12645 columns and 60676 nonzeros
Model fingerprint: 0x4cce1708
Variable types: 12606 continuous, 39 integer (39 binary)
Coefficient statistics:
  Matrix range     [1e-03, 2e+03]
  Objective range  [1e+00, 1e+00]
  Bounds range     [4e-04, 3e+00]
  RHS range        [4e-04, 3e+00]
Presolve removed 10853 rows and 5352 columns
Presolve time: 0.09s
Presolved: 11400 rows, 7293 columns, 39604 nonzeros
Variable types: 7254 continuous, 39 integer (39 binary)
Found heuristic solution: objective 150.0917828
Root relaxation presolved: 11400 rows, 7293 columns, 39604 nonzeros

Root barrier log...

Ordering time: 0.00s

Barrier statistics:
 Dense cols : 39
 AA' NZ     : 8.435e+04
 Factor NZ  : 2.719e+05 (roughly 10 MB of memory)
 Factor Ops : 8.136e+06 (less than 1 second per iteration)
 Threads    : 36

                  Objective                Residual
Iter       Primal          Dual         Primal    Dual     Compl     Time
   0   5.87777000e+05 -1.29872686e+08  4.27e+00 6.03e+02  1.58e+04     0s
   1   6.02083146e+04 -3.39220897e+07  3.63e-01 4.81e-09  1.96e+03     0s
   2   1.64869301e+04 -3.03133062e+06  7.14e-03 1.85e-09  1.34e+02     0s
   3   1.02601745e+04 -1.91244101e+05  9.55e-13 9.24e-11  8.73e+00     0s
   4   2.02366768e+03 -2.47517114e+04  5.54e-13 8.31e-12  1.16e+00     0s
   5   1.05466018e+03 -7.38857396e+03  3.32e-13 3.64e-12  3.66e-01     0s
   6   7.65606624e+02 -3.98173143e+03  2.13e-13 1.82e-12  2.06e-01     0s
   7   4.29583249e+02 -1.34246157e+03  2.90e-13 3.64e-12  7.68e-02     0s
   8   2.58439689e+02 -2.67277621e+02  2.35e-13 1.82e-12  2.28e-02     0s
   9   1.81863384e+02 -5.07474578e+01  2.40e-13 3.64e-12  1.01e-02     0s
  10   1.32266734e+02  5.02766993e+01  6.48e-13 1.82e-12  3.55e-03     0s
  11   1.12257209e+02  8.21225930e+01  7.24e-13 1.82e-12  1.31e-03     0s
  12   1.03887954e+02  9.15403829e+01  1.94e-12 1.82e-12  5.35e-04     0s
  13   1.00600555e+02  9.39020143e+01  6.06e-12 3.64e-12  2.90e-04     0s
  14   9.88750754e+01  9.44233709e+01  7.61e-12 3.64e-12  1.93e-04     0s
  15   9.82570016e+01  9.50362702e+01  4.70e-12 1.82e-12  1.40e-04     0s
  16   9.70886774e+01  9.53886192e+01  3.90e-11 1.82e-12  7.36e-05     0s
  17   9.64498525e+01  9.55996826e+01  5.54e-11 1.82e-12  3.68e-05     0s
  18   9.60280860e+01  9.57204575e+01  7.43e-11 1.82e-12  1.33e-05     0s
  19   9.58755977e+01  9.57611920e+01  2.92e-10 3.64e-12  4.96e-06     0s
  20   9.58309334e+01  9.58068854e+01  7.63e-11 1.82e-12  1.04e-06     0s
  21   9.58180983e+01  9.58149523e+01  6.93e-11 3.64e-12  1.36e-07     0s
  22   9.58160706e+01  9.58158252e+01  1.06e-09 3.64e-12  1.06e-08     0s
  23   9.58158868e+01  9.58158719e+01  1.89e-09 3.64e-12  6.46e-10     0s
  24   9.58158727e+01  9.58158727e+01  7.67e-10 3.64e-12  2.18e-13     0s

Barrier solved model in 24 iterations and 0.49 seconds (0.36 work units)
Optimal objective 9.58158727e+01


Root relaxation: objective 9.581587e+01, 894 iterations, 0.35 seconds (0.19 work units)

    Nodes    |    Current Node    |     Objective Bounds      |     Work
 Expl Unexpl |  Obj  Depth IntInf | Incumbent    BestBd   Gap | It/Node Time

     0     0   95.81587    0   10  150.09178   95.81587  36.2%     -    0s
H    0     0                     108.1075270   95.81587  11.4%     -    0s
     0     0   99.33272    0   11  108.10753   99.33272  8.12%     -    0s
     0     0   99.96365    0   11  108.10753   99.96365  7.53%     -    1s
     0     0   99.96365    0   11  108.10753   99.96365  7.53%     -    1s
     0     0  100.21990    0   12  108.10753  100.21990  7.30%     -    1s
     0     0  100.22018    0   12  108.10753  100.22018  7.30%     -    1s
     0     0  100.26439    0   10  108.10753  100.26439  7.25%     -    1s
     0     0  100.26443    0    9  108.10753  100.26443  7.25%     -    1s
     0     0  100.27257    0    9  108.10753  100.27257  7.25%     -    1s
     0     0  100.27262    0    9  108.10753  100.27262  7.25%     -    2s
     0     2  100.27262    0    9  108.10753  100.27262  7.25%     -    3s
H   11    12                     107.6372232  101.43260  5.76%   230    3s
*  180    41              10     107.2930358  103.72918  3.32%   149    3s

Cutting planes:
  Gomory: 6
  Implied bound: 46
  MIR: 244
  Relax-and-lift: 1

Explored 313 nodes (38546 simplex iterations) in 4.23 seconds (3.85 work units)
Thread count was 36 (of 36 available processors)

Solution count 4: 107.293 107.637 108.108 150.092 

Optimal solution found (tolerance 1.00e-02)
Best objective 1.072930358364e+02, best bound 1.072930358364e+02, gap 0.0000%

Gurobi 9.5.0 (linux64) logging started Sat Nov  4 12:08:04 2023

Set parameter LogFile to value "/lustre1/scratch/348/vsc34888/JointResearch/05.Models/06.Benchmarking/E.Representative_days_based_on_Line_Benefits_OptModel/RTS24_ByStages_nc50/openStarNet_RTS24_ByStages_nc50.log"
Set parameter Method to value 2
Set parameter MIPFocus to value 1
Set parameter Presolve to value 2
Set parameter RINS to value 100
Set parameter MIPGap to value 0.01
Set parameter Threads to value 36
Set parameter TimeLimit to value 604800
Set parameter IterationLimit to value 760000000
No parameters matching 'relax_integrality' found
Gurobi Optimizer version 9.5.0 build v9.5.0rc5 (linux64)
Thread count: 36 physical cores, 36 logical processors, using up to 36 threads
Optimize a model with 22253 rows, 12606 columns and 52837 nonzeros
Model fingerprint: 0x24f9db81
Coefficient statistics:
  Matrix range     [1e-03, 2e+03]
  Objective range  [1e+00, 1e+00]
  Bounds range     [4e-04, 3e+00]
  RHS range        [4e-04, 3e+01]
Presolve removed 17605 rows and 5856 columns
Presolve time: 0.02s
Presolved: 4648 rows, 6850 columns, 17046 nonzeros

Ordering time: 0.00s

Barrier statistics:
 AA' NZ     : 1.205e+04
 Factor NZ  : 5.116e+04 (roughly 4 MB of memory)
 Factor Ops : 7.794e+05 (less than 1 second per iteration)
 Threads    : 1

                  Objective                Residual
Iter       Primal          Dual         Primal    Dual     Compl     Time
   0   6.90827041e+05 -3.91333898e+08  5.77e+00 1.01e+03  6.59e+04     0s
   1   7.24888399e+04 -5.94243807e+07  4.31e-01 4.57e-11  6.47e+03     0s
   2   3.79782208e+04 -4.85155062e+06  1.07e-01 4.40e-11  5.00e+02     0s
   3   2.14118616e+04 -5.24315175e+05  3.41e-03 2.91e-11  4.68e+01     0s
   4   7.41696666e+03 -7.49300607e+04  5.73e-05 5.64e-11  7.01e+00     0s
   5   3.01944331e+03 -1.45682133e+04  1.54e-05 1.46e-11  1.50e+00     0s
   6   9.08366763e+02 -2.81644053e+03  2.39e-06 3.64e-12  3.17e-01     0s
   7   5.01320607e+02 -1.07737267e+03  9.72e-07 7.28e-12  1.34e-01     0s
   8   2.70014780e+02 -2.62290858e+02  3.18e-07 1.46e-11  4.53e-02     0s
   9   1.44803162e+02  6.02847763e+00  4.84e-08 1.46e-11  1.18e-02     0s
  10   1.21072236e+02  7.58644574e+01  1.55e-08 3.64e-12  3.85e-03     0s
  11   1.13572981e+02  9.50590310e+01  6.68e-09 1.46e-11  1.58e-03     0s
  12   1.09896225e+02  1.02025603e+02  2.57e-09 7.28e-12  6.70e-04     0s
  13   1.07977642e+02  1.05845489e+02  5.91e-10 1.46e-11  1.81e-04     0s
  14   1.07398017e+02  1.07137550e+02  7.57e-11 7.28e-12  2.22e-05     0s
  15   1.07314773e+02  1.07288760e+02  1.46e-11 1.46e-11  2.21e-06     0s
  16   1.07294548e+02  1.07292652e+02  9.83e-12 7.28e-12  1.61e-07     0s
  17   1.07293036e+02  1.07293035e+02  2.13e-12 7.28e-12  1.21e-10     0s
  18   1.07293036e+02  1.07293036e+02  2.64e-12 7.28e-12  4.74e-16     0s

Barrier solved model in 18 iterations and 0.08 seconds (0.07 work units)
Optimal objective 1.07293036e+02

Crossover log...

     520 DPushes remaining with DInf 0.0000000e+00                 0s
       0 DPushes remaining with DInf 0.0000000e+00                 0s

     389 PPushes remaining with PInf 0.0000000e+00                 0s
       0 PPushes remaining with PInf 0.0000000e+00                 0s

  Push phase complete: Pinf 0.0000000e+00, Dinf 3.0278547e-12      0s

Iteration    Objective       Primal Inf.    Dual Inf.      Time
     398    1.0729304e+02   0.000000e+00   0.000000e+00      0s

Use crossover to convert LP symmetric solution to basic solution...
Crossover log...

       0 DPushes remaining with DInf 0.0000000e+00                 0s

     209 PPushes remaining with PInf 0.0000000e+00                 0s
       0 PPushes remaining with PInf 0.0000000e+00                 0s

  Push phase complete: Pinf 0.0000000e+00, Dinf 2.9142204e-12      0s

Iteration    Objective       Primal Inf.    Dual Inf.      Time
     613    1.0729304e+02   0.000000e+00   0.000000e+00      0s

Solved in 613 iterations and 0.12 seconds (0.09 work units)
Optimal objective  1.072930358e+02
